networks/zoo_14_33/zoo_14_33.txt
Number of groups: 7
Flow 5: {1 4} {4 7} {7 6} {6 13} 
Flow 10: {2 3} {3 5} {5 12} 
Flow 11: {3 2} {2 1} {1 8} 
Flow 16: {5 6} {6 7} {7 14} 
Flow 23: {7 4} {4 11} 
Flow 29: {4 1} {1 2} {2 9} 
Flow 30: {6 5} {5 3} {3 10} 
Time taken running everything: 1 seconds
