networks/zoo_14_33/standard/zoo_14_33.sol
<?xml version = "1.0" encoding="UTF-8" standalone="yes"?>
<CPLEXSolution version="1.2">
 <header
   problemName="networks/zoo_14_33/zoo_14_33.lp"
   solutionName="incumbent"
   solutionIndex="-1"
   objectiveValue="7"
   solutionTypeValue="3"
   solutionTypeString="primal"
   solutionStatusValue="101"
   solutionStatusString="integer optimal solution"
   solutionMethodString="mip"
   primalFeasible="1"
   dualFeasible="1"
   MIPNodes="0"
   MIPIterations="63"
   writeLevel="3"/>
 <quality
   epInt="1.0000000000000001e-05"
   epRHS="9.9999999999999995e-07"
   maxIntInfeas="0"
   maxPrimalInfeas="0"
   maxX="3"
   maxSlack="9"/>
 <variables>
  <variable name="Y(5,6)" index="61" value="1"/>
  <variable name="Y(10,5)" index="130" value="1"/>
  <variable name="Y(11,1)" index="140" value="1"/>
  <variable name="Y(16,7)" index="216" value="1"/>
  <variable name="Y(23,4)" index="311" value="1"/>
  <variable name="Y(29,2)" index="393" value="1"/>
  <variable name="Y(30,3)" index="408" value="1"/>
  <variable name="X(1,2,29)" index="490" value="1"/>
  <variable name="X(1,4,5)" index="499" value="1"/>
  <variable name="X(1,8,11)" index="538" value="1"/>
  <variable name="X(2,1,11)" index="571" value="1"/>
  <variable name="X(2,3,10)" index="603" value="1"/>
  <variable name="X(2,9,29)" index="655" value="1"/>
  <variable name="X(3,2,11)" index="670" value="1"/>
  <variable name="X(3,5,10)" index="702" value="1"/>
  <variable name="X(3,10,30)" index="755" value="1"/>
  <variable name="X(4,1,29)" index="787" value="1"/>
  <variable name="X(4,7,5)" index="796" value="1"/>
  <variable name="X(4,11,23)" index="847" value="1"/>
  <variable name="X(5,3,30)" index="887" value="1"/>
  <variable name="X(5,6,16)" index="906" value="1"/>
  <variable name="X(5,12,10)" index="933" value="1"/>
  <variable name="X(6,5,30)" index="986" value="1"/>
  <variable name="X(6,7,16)" index="1005" value="1"/>
  <variable name="X(6,13,5)" index="1027" value="1"/>
  <variable name="X(7,4,23)" index="1078" value="1"/>
  <variable name="X(7,6,5)" index="1093" value="1"/>
  <variable name="X(7,14,16)" index="1137" value="1"/>
  <variable name="C(5,4)" index="1167" value="1"/>
  <variable name="C(5,7)" index="1168" value="2"/>
  <variable name="C(5,6)" index="1169" value="3"/>
  <variable name="C(10,3)" index="1181" value="1"/>
  <variable name="C(10,5)" index="1182" value="2"/>
  <variable name="C(11,2)" index="1184" value="1"/>
  <variable name="C(11,1)" index="1185" value="2"/>
  <variable name="C(16,6)" index="1199" value="1"/>
  <variable name="C(16,7)" index="1200" value="2"/>
  <variable name="C(23,4)" index="1223" value="1"/>
  <variable name="C(29,1)" index="1239" value="1"/>
  <variable name="C(29,2)" index="1240" value="2"/>
  <variable name="C(30,5)" index="1243" value="1"/>
  <variable name="C(30,3)" index="1244" value="2"/>
 </variables>
</CPLEXSolution>
